NAME          BLANK   
ROWS
 N  OBJROW
 L  R0000000
 L  R0000001
 L  R0000002
 L  R0000003
 L  R0000004
 L  R0000005
 L  R0000006
 L  R0000007
 L  R0000008
 L  R0000009
 L  R0000010
 L  R0000011
 L  R0000012
 L  R0000013
 L  R0000014
 L  R0000015
 L  R0000016
 L  R0000017
 L  R0000018
 L  R0000019
 L  R0000020
 L  R0000021
 L  R0000022
 L  R0000023
 L  R0000024
 L  R0000025
 L  R0000026
 L  R0000027
 L  R0000028
 L  R0000029
 L  R0000030
 L  R0000031
 L  R0000032
 L  R0000033
 L  R0000034
 L  R0000035
 L  R0000036
 L  R0000037
 L  R0000038
 L  R0000039
 L  R0000040
 L  R0000041
 L  R0000042
 L  R0000043
 L  R0000044
 L  R0000045
 L  R0000046
 L  R0000047
 L  R0000048
 L  R0000049
 L  R0000050
 L  R0000051
 L  R0000052
 L  R0000053
 L  R0000054
 L  R0000055
 L  R0000056
 L  R0000057
 L  R0000058
 L  R0000059
 L  R0000060
 L  R0000061
 L  R0000062
 L  R0000063
 L  R0000064
 L  R0000065
 L  R0000066
 L  R0000067
 L  R0000068
 L  R0000069
 L  R0000070
 L  R0000071
 L  R0000072
 L  R0000073
 L  R0000074
 L  R0000075
 L  R0000076
 L  R0000077
 L  R0000078
 L  R0000079
 L  R0000080
 L  R0000081
 L  R0000082
 L  R0000083
 L  R0000084
 L  R0000085
 L  R0000086
 L  R0000087
 L  R0000088
 L  R0000089
 L  R0000090
 L  R0000091
 L  R0000092
 L  R0000093
 L  R0000094
 L  R0000095
 L  R0000096
 L  R0000097
 L  R0000098
 L  R0000099
 L  R0000100
 L  R0000101
 L  R0000102
 L  R0000103
 L  R0000104
COLUMNS
    C0000000  OBJROW    6.73205081     R0000014   -21.       
    C0000000  R0000015   -1.           R0000017  1.          
    C0000000  R0000018   -1.           R0000020  1.          
    C0000000  R0000021   -1.           R0000023  1.          
    C0000000  R0000024   -1.           R0000026  1.          
    C0000000  R0000027   -1.           R0000029  1.          
    C0000000  R0000040   -1.           R0000041  1.          
    C0000000  R0000052   -1.           R0000053  1.          
    C0000000  R0000073   -1.           R0000074  1.          
    C0000000  R0000085   -1.           R0000086  1.          
    C0000000  R0000100   -1.           R0000101  1.          
    C0000001  OBJROW    6.41421356     R0000006   -1.        
    C0000001  R0000030   -1.           R0000032  1.          
    C0000001  R0000033   -1.           R0000035  1.          
    C0000001  R0000036   -1.           R0000038  1.          
    C0000001  R0000043   -1.           R0000044  1.          
    C0000001  R0000061   -1.           R0000062  1.          
    C0000001  R0000076   -1.           R0000077  1.          
    C0000002  OBJROW    5.86180732     R0000007   -2.        
    C0000002  R0000016   -1.           R0000017  1.          
    C0000002  R0000031   -1.           R0000032  1.          
    C0000002  R0000039   -1.           R0000041  1.          
    C0000002  R0000042   -1.           R0000044  1.          
    C0000002  R0000045   -1.           R0000047  1.          
    C0000002  R0000048   -1.           R0000050  1.          
    C0000002  R0000064   -1.           R0000065  1.          
    C0000002  R0000088   -1.           R0000089  1.          
    C0000003  OBJROW    5.70710678     R0000008   -2.        
    C0000003  R0000019   -1.           R0000020  1.          
    C0000003  R0000051   -1.           R0000053  1.          
    C0000003  R0000054   -1.           R0000056  1.          
    C0000003  R0000057   -1.           R0000059  1.          
    C0000003  R0000067   -1.           R0000068  1.          
    C0000003  R0000079   -1.           R0000080  1.          
    C0000004  OBJROW    5.99156383     R0000009   -1.        
    C0000004  R0000034   -1.           R0000035  1.          
    C0000004  R0000046   -1.           R0000047  1.          
    C0000004  R0000055   -1.           R0000056  1.          
    C0000004  R0000060   -1.           R0000062  1.          
    C0000004  R0000063   -1.           R0000065  1.          
    C0000004  R0000066   -1.           R0000068  1.          
    C0000004  R0000069   -1.           R0000071  1.          
    C0000004  R0000082   -1.           R0000083  1.          
    C0000005  OBJROW    5.99156383     R0000010   -2.        
    C0000005  R0000022   -1.           R0000023  1.          
    C0000005  R0000037   -1.           R0000038  1.          
    C0000005  R0000058   -1.           R0000059  1.          
    C0000005  R0000070   -1.           R0000071  1.          
    C0000005  R0000072   -1.           R0000074  1.          
    C0000005  R0000075   -1.           R0000077  1.          
    C0000005  R0000078   -1.           R0000080  1.          
    C0000005  R0000081   -1.           R0000083  1.          
    C0000006  OBJROW    4.15470054     R0000011   -1.        
    C0000006  R0000025   -1.           R0000026  1.          
    C0000006  R0000049   -1.           R0000050  1.          
    C0000006  R0000084   -1.           R0000086  1.          
    C0000006  R0000087   -1.           R0000089  1.          
    C0000007  OBJROW    4.             R0000012   -2.        
    C0000007  R0000090   -1.           R0000092  1.          
    C0000007  R0000094   -1.           R0000095  1.          
    C0000008  OBJROW    4.70710678     R0000013   -1.        
    C0000008  R0000091   -1.           R0000092  1.          
    C0000008  R0000093   -1.           R0000095  1.          
    C0000008  R0000096   -1.           R0000098  1.          
    C0000008  R0000103   -1.           R0000104  1.          
    C0000009  OBJROW    4.28445705     R0000028   -1.        
    C0000009  R0000029  1.             R0000097   -1.        
    C0000009  R0000098  1.             R0000099   -1.        
    C0000009  R0000101  1.             R0000102   -1.        
    C0000009  R0000104  1.          
    C0000010  OBJROW     -1.           R0000015  1.          
    C0000010  R0000016  1.             R0000017   -1.        
    C0000011  OBJROW     -1.           R0000018  1.          
    C0000011  R0000019  1.             R0000020   -1.        
    C0000012  OBJROW     -0.57735027   R0000021  1.          
    C0000012  R0000022  1.             R0000023   -1.        
    C0000013  OBJROW     -0.57735027   R0000024  1.          
    C0000013  R0000025  1.             R0000026   -1.        
    C0000014  OBJROW     -0.57735027   R0000027  1.          
    C0000014  R0000028  1.             R0000029   -1.        
    C0000015  OBJROW     -0.70710678   R0000030  1.          
    C0000015  R0000031  1.             R0000032   -1.        
    C0000016  OBJROW     -0.70710678   R0000033  1.          
    C0000016  R0000034  1.             R0000035   -1.        
    C0000017  OBJROW     -1.           R0000036  1.          
    C0000017  R0000037  1.             R0000038   -1.        
    C0000018  OBJROW     -1.           R0000039  1.          
    C0000018  R0000040  1.             R0000041   -1.        
    C0000019  OBJROW     -0.70710678   R0000042  1.          
    C0000019  R0000043  1.             R0000044   -1.        
    C0000020  OBJROW     -0.57735027   R0000045  1.          
    C0000020  R0000046  1.             R0000047   -1.        
    C0000021  OBJROW     -0.57735027   R0000048  1.          
    C0000021  R0000049  1.             R0000050   -1.        
    C0000022  OBJROW     -1.           R0000051  1.          
    C0000022  R0000052  1.             R0000053   -1.        
    C0000023  OBJROW     -1.           R0000054  1.          
    C0000023  R0000055  1.             R0000056   -1.        
    C0000024  OBJROW     -0.70710678   R0000057  1.          
    C0000024  R0000058  1.             R0000059   -1.        
    C0000025  OBJROW     -0.70710678   R0000060  1.          
    C0000025  R0000061  1.             R0000062   -1.        
    C0000026  OBJROW     -0.57735027   R0000063  1.          
    C0000026  R0000064  1.             R0000065   -1.        
    C0000027  OBJROW     -1.           R0000066  1.          
    C0000027  R0000067  1.             R0000068   -1.        
    C0000028  OBJROW     -0.70710678   R0000069  1.          
    C0000028  R0000070  1.             R0000071   -1.        
    C0000029  OBJROW     -0.57735027   R0000072  1.          
    C0000029  R0000073  1.             R0000074   -1.        
    C0000030  OBJROW     -1.           R0000075  1.          
    C0000030  R0000076  1.             R0000077   -1.        
    C0000031  OBJROW     -0.70710678   R0000078  1.          
    C0000031  R0000079  1.             R0000080   -1.        
    C0000032  OBJROW     -0.70710678   R0000081  1.          
    C0000032  R0000082  1.             R0000083   -1.        
    C0000033  OBJROW     -0.57735027   R0000084  1.          
    C0000033  R0000085  1.             R0000086   -1.        
    C0000034  OBJROW     -0.57735027   R0000087  1.          
    C0000034  R0000088  1.             R0000089   -1.        
    C0000035  OBJROW     -1.           R0000090  1.          
    C0000035  R0000091  1.             R0000092   -1.        
    C0000036  OBJROW     -1.           R0000093  1.          
    C0000036  R0000094  1.             R0000095   -1.        
    C0000037  OBJROW     -0.70710678   R0000096  1.          
    C0000037  R0000097  1.             R0000098   -1.        
    C0000038  OBJROW     -0.57735027   R0000099  1.          
    C0000038  R0000100  1.             R0000101   -1.        
    C0000039  OBJROW     -0.70710678   R0000102  1.          
    C0000039  R0000103  1.             R0000104   -1.        
    C0000040  OBJROW    4.             R0000006  1.          
    C0000041  OBJROW    3.             R0000007  1.          
    C0000042  OBJROW    3.             R0000007  1.          
    C0000043  OBJROW    3.             R0000008  1.          
    C0000044  OBJROW    3.             R0000008  1.          
    C0000045  OBJROW    3.             R0000009  1.          
    C0000046  OBJROW    3.             R0000010  1.          
    C0000047  OBJROW    3.             R0000010  1.          
    C0000048  OBJROW    3.             R0000011  1.          
    C0000049  OBJROW    3.             R0000012  1.          
    C0000050  OBJROW    3.             R0000012  1.          
    C0000051  OBJROW    3.             R0000013  1.          
    C0000052  OBJROW    3.          
    C0000053  OBJROW    3.          
    C0000054  R0000000   -1.           R0000014  1.          
    C0000055  R0000014  1.          
    C0000056  R0000014  1.          
    C0000057  R0000014  1.          
    C0000058  R0000014  1.          
    C0000059  R0000014  1.          
    C0000060  R0000014  1.          
    C0000061  R0000014  1.          
    C0000062  R0000014  1.          
    C0000063  R0000014  1.          
    C0000064  R0000014  1.          
    C0000065  R0000014  1.          
    C0000066  R0000014  1.          
    C0000067  R0000014  1.          
    C0000068  R0000014  1.          
    C0000069  R0000014  1.          
    C0000070  R0000014  1.          
    C0000071  R0000014  1.          
    C0000072  R0000014  1.          
    C0000073  R0000014  1.          
    C0000074  R0000014  1.          
RHS
    RHS       R0000000   -5.           R0000001   -2.        
    RHS       R0000002   -4.           R0000003   -2.        
    RHS       R0000004   -1.           R0000017  1.          
    RHS       R0000020  1.             R0000023  1.          
    RHS       R0000026  1.             R0000029  1.          
    RHS       R0000032  1.             R0000035  1.          
    RHS       R0000038  1.             R0000041  1.          
    RHS       R0000044  1.             R0000047  1.          
    RHS       R0000050  1.             R0000053  1.          
    RHS       R0000056  1.             R0000059  1.          
    RHS       R0000062  1.             R0000065  1.          
    RHS       R0000068  1.             R0000071  1.          
    RHS       R0000074  1.             R0000077  1.          
    RHS       R0000080  1.             R0000083  1.          
    RHS       R0000086  1.             R0000089  1.          
    RHS       R0000092  1.             R0000095  1.          
    RHS       R0000098  1.             R0000101  1.          
    RHS       R0000104  1.          
BOUNDS
 BV BOUND     C0000000  1.          
 BV BOUND     C0000001  1.          
 BV BOUND     C0000002  1.          
 BV BOUND     C0000003  1.          
 BV BOUND     C0000004  1.          
 BV BOUND     C0000005  1.          
 BV BOUND     C0000006  1.          
 BV BOUND     C0000007  1.          
 BV BOUND     C0000008  1.          
 BV BOUND     C0000009  1.          
 BV BOUND     C0000010  1.          
 BV BOUND     C0000011  1.          
 BV BOUND     C0000012  1.          
 BV BOUND     C0000013  1.          
 BV BOUND     C0000014  1.          
 BV BOUND     C0000015  1.          
 BV BOUND     C0000016  1.          
 BV BOUND     C0000017  1.          
 BV BOUND     C0000018  1.          
 BV BOUND     C0000019  1.          
 BV BOUND     C0000020  1.          
 BV BOUND     C0000021  1.          
 BV BOUND     C0000022  1.          
 BV BOUND     C0000023  1.          
 BV BOUND     C0000024  1.          
 BV BOUND     C0000025  1.          
 BV BOUND     C0000026  1.          
 BV BOUND     C0000027  1.          
 BV BOUND     C0000028  1.          
 BV BOUND     C0000029  1.          
 BV BOUND     C0000030  1.          
 BV BOUND     C0000031  1.          
 BV BOUND     C0000032  1.          
 BV BOUND     C0000033  1.          
 BV BOUND     C0000034  1.          
 BV BOUND     C0000035  1.          
 BV BOUND     C0000036  1.          
 BV BOUND     C0000037  1.          
 BV BOUND     C0000038  1.          
 BV BOUND     C0000039  1.          
 BV BOUND     C0000040  1.          
 BV BOUND     C0000041  1.          
 BV BOUND     C0000042  1.          
 BV BOUND     C0000043  1.          
 BV BOUND     C0000044  1.          
 BV BOUND     C0000045  1.          
 BV BOUND     C0000046  1.          
 BV BOUND     C0000047  1.          
 BV BOUND     C0000048  1.          
 BV BOUND     C0000049  1.          
 BV BOUND     C0000050  1.          
 BV BOUND     C0000051  1.          
 BV BOUND     C0000052  1.          
 BV BOUND     C0000053  1.          
 BV BOUND     C0000054  1.          
 BV BOUND     C0000055  1.          
 BV BOUND     C0000056  1.          
 BV BOUND     C0000057  1.          
 BV BOUND     C0000058  1.          
 BV BOUND     C0000059  1.          
 BV BOUND     C0000060  1.          
 BV BOUND     C0000061  1.          
 BV BOUND     C0000062  1.          
 BV BOUND     C0000063  1.          
 BV BOUND     C0000064  1.          
 BV BOUND     C0000065  1.          
 BV BOUND     C0000066  1.          
 BV BOUND     C0000067  1.          
 BV BOUND     C0000068  1.          
 BV BOUND     C0000069  1.          
 BV BOUND     C0000070  1.          
 BV BOUND     C0000071  1.          
 BV BOUND     C0000072  1.          
 BV BOUND     C0000073  1.          
 BV BOUND     C0000074  1.          
ENDATA
